
Gurobi 5.5.0 (linux64) logging started Wed Mar 12 07:34:24 2014


Gurobi 5.5.0 (linux64) logging started Wed Mar 12 07:37:07 2014


Gurobi 5.5.0 (linux64) logging started Wed Mar 12 07:37:48 2014


Gurobi 5.5.0 (linux64) logging started Wed Mar 12 07:38:13 2014


Gurobi 5.5.0 (linux64) logging started Wed Mar 12 07:38:31 2014


Gurobi 5.5.0 (linux64) logging started Wed Mar 12 07:39:47 2014


Gurobi 5.5.0 (linux64) logging started Wed Mar 12 07:41:25 2014


Gurobi 5.5.0 (linux64) logging started Wed Mar 12 09:45:46 2014


Gurobi 5.5.0 (linux64) logging started Wed Mar 12 09:45:58 2014


Gurobi 5.5.0 (linux64) logging started Fri Mar 21 07:52:51 2014


Gurobi 5.5.0 (linux64) logging started Fri Mar 21 19:02:05 2014


Gurobi 5.5.0 (linux64) logging started Fri Mar 21 19:03:57 2014


Gurobi 5.5.0 (linux64) logging started Fri Mar 21 19:06:00 2014

